p cnf 8 20
-3 0
-2 0
-1 -5 0
-2 -6 0
-3 -7 0
-4 -8 0
1 3 0
5 7 0
2 4 0
6 8 0
1 2 0
5 6 0
3 4 0
7 8 0
3 4 5 5 6 7 7 8 9 0
3 4 5 5 6 7 7 8 9 0
3 4 5 5 6 7 7 8 9 0
3 4 5 5 6 7 7 8 9 0
7 8 9 9 10 11 11 12 13 0
7 8 9 9 10 11 11 12 13 0
7 8 9 9 10 11 11 12 13 0
7 8 9 9 10 11 11 12 13 0